c FILE: i160-105

c SOURCE: From steinlib

c DESCRIPTION: Steinlib instance with 160 nodes and 240 edges.

p edge 160 240
e 1 3
e 1 30
e 1 42
e 1 50
e 1 71
e 1 76
e 1 88
e 1 103
e 1 125
e 1 133
e 1 159
e 2 55
e 2 56
e 2 58
e 2 113
e 2 115
e 3 80
e 3 92
e 3 97
e 4 29
e 4 30
e 4 95
e 4 148
e 5 99
e 6 34
e 6 44
e 6 76
e 6 84
e 7 56
e 8 96
e 8 141
e 9 93
e 9 131
e 9 145
e 10 28
e 10 88
e 10 113
e 11 13
e 11 28
e 11 54
e 11 83
e 11 104
e 11 108
e 11 157
e 12 15
e 12 56
e 12 129
e 13 90
e 14 87
e 14 134
e 15 142
e 16 110
e 16 149
e 16 158
e 17 24
e 17 76
e 17 93
e 18 25
e 18 57
e 18 136
e 19 28
e 19 157
e 20 118
e 20 148
e 21 44
e 21 74
e 21 86
e 21 136
e 22 129
e 22 140
e 23 84
e 23 87
e 24 76
e 24 141
e 25 32
e 25 56
e 25 130
e 26 30
e 27 54
e 27 96
e 28 56
e 28 110
e 28 112
e 28 159
e 30 109
e 30 122
e 31 71
e 31 142
e 32 67
e 33 84
e 33 153
e 34 45
e 34 62
e 34 147
e 35 150
e 36 53
e 36 138
e 37 39
e 37 44
e 37 63
e 37 84
e 37 91
e 38 72
e 38 90
e 39 157
e 40 57
e 41 91
e 41 97
e 41 107
e 42 114
e 43 142
e 44 156
e 45 102
e 46 116
e 46 151
e 47 50
e 47 73
e 47 105
e 47 142
e 48 81
e 48 119
e 49 62
e 50 93
e 50 106
e 50 116
e 50 128
e 50 129
e 51 60
e 51 85
e 52 132
e 52 147
e 53 94
e 53 153
e 55 139
e 55 153
e 56 148
e 57 151
e 57 157
e 58 119
e 59 64
e 59 128
e 60 69
e 60 77
e 60 85
e 61 75
e 61 104
e 61 123
e 62 94
e 62 104
e 63 81
e 63 101
e 63 110
e 63 133
e 63 155
e 64 155
e 65 160
e 66 112
e 67 81
e 67 103
e 68 154
e 69 76
e 69 97
e 70 81
e 70 90
e 70 120
e 72 130
e 72 151
e 72 154
e 73 127
e 74 103
e 74 142
e 75 106
e 76 78
e 76 89
e 76 110
e 77 100
e 77 113
e 79 128
e 79 143
e 79 145
e 80 146
e 81 139
e 82 101
e 82 135
e 82 137
e 82 151
e 83 106
e 84 90
e 84 96
e 85 107
e 88 101
e 88 134
e 88 156
e 91 116
e 92 114
e 93 135
e 94 133
e 94 150
e 98 110
e 99 109
e 100 133
e 100 144
e 102 127
e 103 118
e 103 136
e 103 154
e 104 111
e 104 113
e 104 133
e 104 140
e 105 117
e 105 160
e 106 143
e 107 151
e 109 144
e 110 126
e 111 119
e 113 118
e 113 150
e 114 153
e 115 135
e 119 133
e 119 137
e 120 156
e 121 128
e 122 141
e 122 152
e 124 141
e 126 156
e 129 143
e 129 154
e 130 139
e 132 133
e 133 137
e 133 138
e 138 140
e 141 156
e 144 160
e 150 156
e 151 156
